p edge 380 1140
e 1 42
e 1 83
e 1 91
e 2 30
e 2 31
e 2 238
e 3 64
e 3 206
e 3 264
e 4 93
e 4 219
e 4 313
e 5 49
e 5 115
e 5 145
e 6 69
e 6 155
e 6 326
e 7 130
e 7 138
e 7 252
e 8 106
e 8 112
e 8 222
e 9 148
e 9 216
e 9 375
e 10 140
e 10 142
e 10 250
e 11 31
e 11 193
e 11 236
e 12 157
e 12 232
e 12 359
e 13 12
e 13 53
e 13 126
e 14 22
e 14 224
e 14 284
e 15 107
e 15 214
e 15 245
e 16 119
e 16 282
e 16 348
e 17 159
e 17 312
e 17 327
e 18 153
e 18 205
e 18 370
e 19 77
e 19 229
e 19 287
e 20 83
e 20 239
e 20 335
e 21 55
e 21 56
e 21 152
e 22 201
e 22 277
e 22 368
e 23 19
e 23 115
e 23 195
e 24 8
e 24 203
e 24 330
e 25 20
e 25 105
e 25 239
e 26 112
e 26 135
e 26 184
e 27 52
e 27 142
e 27 186
e 28 23
e 28 78
e 28 211
e 29 13
e 29 63
e 29 364
e 30 136
e 30 178
e 30 368
e 31 37
e 31 212
e 31 257
e 32 47
e 32 204
e 32 308
e 33 156
e 33 343
e 33 348
e 34 68
e 34 68
e 34 254
e 35 242
e 35 284
e 35 309
e 36 256
e 36 300
e 36 338
e 37 105
e 37 213
e 37 240
e 38 219
e 38 298
e 38 326
e 39 154
e 39 231
e 39 333
e 40 78
e 40 169
e 40 335
e 41 264
e 41 283
e 41 352
e 42 88
e 42 182
e 42 237
e 43 115
e 43 144
e 43 351
e 44 111
e 44 127
e 44 269
e 45 49
e 45 246
e 45 364
e 46 147
e 46 240
e 46 256
e 47 15
e 47 283
e 47 339
e 48 155
e 48 200
e 48 342
e 49 222
e 49 349
e 49 357
e 50 9
e 50 260
e 50 308
e 51 176
e 51 227
e 51 261
e 52 254
e 52 280
e 52 310
e 53 59
e 53 198
e 53 255
e 54 119
e 54 149
e 54 289
e 55 255
e 55 287
e 55 300
e 56 72
e 56 202
e 56 336
e 57 137
e 57 176
e 57 350
e 58 2
e 58 84
e 58 318
e 59 73
e 59 199
e 59 204
e 60 182
e 60 194
e 60 352
e 61 67
e 61 161
e 61 319
e 62 63
e 62 134
e 62 233
e 63 66
e 63 288
e 63 333
e 64 22
e 64 117
e 64 265
e 65 44
e 65 222
e 65 345
e 66 17
e 66 109
e 66 281
e 67 81
e 67 302
e 67 362
e 68 32
e 68 41
e 68 296
e 69 43
e 69 126
e 69 177
e 70 41
e 70 161
e 70 188
e 71 88
e 71 124
e 71 216
e 72 9
e 72 93
e 72 201
e 73 102
e 73 316
e 73 356
e 74 135
e 74 268
e 74 352
e 75 223
e 75 305
e 75 331
e 76 28
e 76 86
e 76 336
e 77 23
e 77 161
e 77 362
e 78 17
e 78 240
e 78 314
e 79 68
e 79 70
e 79 161
e 80 47
e 80 94
e 80 226
e 81 40
e 81 95
e 81 111
e 82 110
e 82 185
e 82 360
e 83 117
e 83 189
e 83 341
e 84 74
e 84 137
e 84 225
e 85 76
e 85 335
e 85 357
e 86 78
e 86 204
e 86 324
e 87 45
e 87 157
e 87 179
e 88 79
e 88 92
e 88 171
e 89 146
e 89 150
e 89 292
e 90 10
e 90 163
e 90 318
e 91 101
e 91 105
e 91 346
e 92 82
e 92 248
e 92 374
e 93 199
e 93 218
e 93 375
e 94 90
e 94 107
e 94 160
e 95 60
e 95 154
e 95 267
e 96 71
e 96 89
e 96 183
e 97 193
e 97 292
e 97 363
e 98 85
e 98 153
e 98 273
e 99 121
e 99 182
e 99 209
e 100 2
e 100 45
e 100 75
e 101 37
e 101 135
e 101 278
e 102 54
e 102 65
e 102 152
e 103 34
e 103 173
e 103 373
e 104 31
e 104 237
e 104 248
e 105 128
e 105 175
e 105 184
e 106 4
e 106 193
e 106 376
e 107 152
e 107 232
e 107 316
e 108 69
e 108 77
e 108 123
e 109 62
e 109 104
e 109 275
e 110 130
e 110 251
e 110 328
e 111 53
e 111 106
e 111 140
e 112 122
e 112 129
e 112 332
e 113 21
e 113 57
e 113 199
e 114 177
e 114 197
e 114 235
e 115 42
e 115 230
e 115 290
e 116 110
e 116 127
e 116 343
e 117 38
e 117 206
e 117 306
e 118 211
e 118 272
e 118 291
e 119 128
e 119 332
e 119 357
e 120 47
e 120 135
e 120 333
e 121 125
e 121 237
e 121 302
e 122 63
e 122 153
e 122 222
e 123 8
e 123 10
e 123 228
e 124 157
e 124 161
e 124 314
e 125 184
e 125 284
e 125 344
e 126 44
e 126 201
e 126 288
e 127 153
e 127 236
e 127 329
e 128 4
e 128 87
e 128 186
e 129 305
e 129 349
e 129 375
e 130 180
e 130 276
e 130 290
e 131 234
e 131 284
e 131 335
e 132 34
e 132 36
e 132 362
e 133 54
e 133 60
e 133 307
e 134 11
e 134 246
e 134 336
e 135 147
e 135 288
e 135 324
e 136 68
e 136 237
e 136 330
e 137 144
e 137 170
e 137 241
e 138 111
e 138 243
e 138 313
e 139 51
e 139 179
e 139 338
e 140 82
e 140 115
e 140 210
e 141 129
e 141 233
e 141 315
e 142 125
e 142 180
e 142 260
e 143 8
e 143 263
e 143 304
e 144 184
e 144 221
e 144 232
e 145 298
e 145 348
e 145 363
e 146 169
e 146 233
e 146 294
e 147 86
e 147 269
e 147 309
e 148 80
e 148 253
e 148 327
e 149 164
e 149 282
e 149 287
e 150 53
e 150 87
e 150 182
e 151 38
e 151 213
e 151 281
e 152 36
e 152 136
e 152 213
e 153 26
e 153 145
e 153 207
e 154 97
e 154 338
e 154 378
e 155 14
e 155 112
e 155 194
e 156 46
e 156 132
e 156 178
e 157 15
e 157 139
e 157 341
e 158 21
e 158 205
e 158 225
e 159 28
e 159 242
e 159 318
e 160 268
e 160 327
e 160 344
e 161 103
e 161 197
e 161 378
e 162 31
e 162 240
e 162 365
e 163 177
e 163 278
e 163 320
e 164 120
e 164 175
e 164 202
e 165 3
e 165 271
e 165 337
e 166 139
e 166 228
e 166 263
e 167 118
e 167 132
e 167 152
e 168 18
e 168 50
e 168 99
e 169 8
e 169 39
e 169 107
e 170 22
e 170 146
e 170 201
e 171 219
e 171 259
e 171 323
e 172 98
e 172 246
e 172 357
e 173 49
e 173 182
e 173 197
e 174 78
e 174 89
e 174 121
e 175 53
e 175 108
e 175 210
e 176 24
e 176 25
e 176 270
e 177 249
e 177 342
e 177 356
e 178 137
e 178 146
e 178 207
e 179 278
e 179 346
e 179 347
e 180 33
e 180 311
e 180 328
e 181 41
e 181 250
e 181 349
e 182 100
e 182 211
e 182 236
e 183 21
e 183 228
e 183 322
e 184 28
e 184 230
e 184 241
e 185 6
e 185 141
e 185 335
e 186 228
e 186 265
e 186 302
e 187 40
e 187 185
e 187 247
e 188 158
e 188 181
e 188 333
e 189 41
e 189 79
e 189 334
e 190 88
e 190 258
e 190 288
e 191 46
e 191 93
e 191 374
e 192 23
e 192 53
e 192 143
e 193 62
e 193 168
e 193 289
e 194 27
e 194 151
e 194 281
e 195 212
e 195 226
e 195 314
e 196 194
e 196 206
e 196 354
e 197 2
e 197 81
e 197 276
e 198 5
e 198 102
e 198 281
e 199 124
e 199 313
e 199 337
e 200 78
e 200 175
e 200 221
e 201 161
e 201 252
e 201 342
e 202 93
e 202 342
e 202 347
e 203 57
e 203 294
e 203 355
e 204 55
e 204 135
e 204 273
e 205 46
e 205 75
e 205 151
e 206 134
e 206 224
e 206 231
e 207 103
e 207 156
e 207 236
e 208 131
e 208 297
e 208 375
e 209 5
e 209 35
e 209 276
e 210 35
e 210 260
e 210 366
e 211 101
e 211 107
e 211 290
e 212 162
e 212 165
e 212 279
e 213 166
e 213 261
e 213 376
e 214 119
e 214 358
e 214 380
e 215 155
e 215 217
e 215 313
e 216 178
e 216 288
e 216 351
e 217 93
e 217 114
e 217 341
e 218 12
e 218 149
e 218 271
e 219 255
e 219 346
e 219 367
e 220 12
e 220 115
e 220 284
e 221 25
e 221 37
e 221 272
e 222 266
e 222 334
e 222 353
e 223 238
e 223 285
e 223 328
e 224 220
e 224 269
e 224 319
e 225 16
e 225 223
e 225 340
e 226 41
e 226 199
e 226 377
e 227 116
e 227 215
e 227 363
e 228 203
e 228 208
e 228 320
e 229 31
e 229 35
e 229 244
e 230 34
e 230 80
e 230 286
e 231 33
e 231 343
e 231 371
e 232 55
e 232 277
e 232 350
e 233 258
e 233 332
e 233 374
e 234 51
e 234 219
e 234 296
e 235 48
e 235 206
e 235 291
e 236 62
e 236 231
e 236 323
e 237 15
e 237 39
e 237 150
e 238 295
e 238 296
e 238 323
e 239 55
e 239 183
e 239 317
e 240 136
e 240 262
e 240 277
e 241 172
e 241 283
e 241 290
e 242 117
e 242 133
e 242 318
e 243 126
e 243 154
e 243 257
e 244 109
e 244 279
e 244 320
e 245 65
e 245 209
e 245 287
e 246 250
e 246 281
e 246 303
e 247 97
e 247 250
e 247 361
e 248 16
e 248 90
e 248 249
e 249 23
e 249 37
e 249 201
e 250 118
e 250 141
e 250 183
e 251 25
e 251 83
e 251 294
e 252 3
e 252 60
e 252 64
e 253 21
e 253 177
e 253 354
e 254 75
e 254 98
e 254 304
e 255 71
e 255 196
e 255 249
e 256 158
e 256 321
e 256 351
e 257 242
e 257 325
e 257 380
e 258 108
e 258 165
e 258 275
e 259 256
e 259 306
e 259 312
e 260 90
e 260 255
e 260 308
e 261 92
e 261 208
e 261 370
e 262 86
e 262 216
e 262 295
e 263 77
e 263 323
e 263 353
e 264 176
e 264 346
e 264 369
e 265 25
e 265 28
e 265 346
e 266 82
e 266 84
e 266 107
e 267 61
e 267 166
e 267 321
e 268 145
e 268 181
e 268 341
e 269 232
e 269 251
e 269 335
e 270 100
e 270 127
e 270 217
e 271 25
e 271 98
e 271 152
e 272 171
e 272 257
e 272 359
e 273 97
e 273 167
e 273 243
e 274 65
e 274 178
e 274 372
e 275 102
e 275 105
e 275 168
e 276 31
e 276 40
e 276 157
e 277 246
e 277 273
e 277 313
e 278 9
e 278 28
e 278 243
e 279 130
e 279 267
e 279 280
e 280 15
e 280 90
e 280 337
e 281 157
e 281 196
e 281 293
e 282 39
e 282 189
e 282 299
e 283 73
e 283 218
e 283 275
e 284 27
e 284 242
e 284 304
e 285 229
e 285 323
e 285 368
e 286 23
e 286 245
e 286 346
e 287 174
e 287 177
e 287 372
e 288 163
e 288 324
e 288 366
e 289 16
e 289 121
e 289 234
e 290 114
e 290 142
e 290 202
e 291 172
e 291 275
e 291 317
e 292 249
e 292 270
e 292 300
e 293 29
e 293 129
e 293 224
e 294 28
e 294 307
e 294 350
e 295 59
e 295 65
e 295 191
e 296 69
e 296 313
e 296 365
e 297 19
e 297 115
e 297 346
e 298 122
e 298 130
e 298 185
e 299 9
e 299 75
e 299 311
e 300 54
e 300 238
e 300 244
e 301 154
e 301 168
e 301 297
e 302 140
e 302 203
e 302 331
e 303 238
e 303 251
e 303 269
e 304 28
e 304 197
e 304 285
e 305 70
e 305 169
e 305 329
e 306 6
e 306 137
e 306 310
e 307 52
e 307 291
e 307 319
e 308 101
e 308 255
e 308 272
e 309 59
e 309 135
e 309 316
e 310 24
e 310 199
e 310 299
e 311 86
e 311 375
e 311 376
e 312 51
e 312 132
e 312 227
e 313 109
e 313 146
e 313 345
e 314 96
e 314 118
e 314 272
e 315 7
e 315 39
e 315 325
e 316 34
e 316 67
e 316 284
e 317 173
e 317 205
e 317 361
e 318 75
e 318 232
e 318 234
e 319 172
e 319 310
e 319 353
e 320 271
e 320 310
e 320 379
e 321 141
e 321 225
e 321 292
e 322 96
e 322 243
e 322 284
e 323 44
e 323 62
e 323 203
e 324 49
e 324 89
e 324 175
e 325 94
e 325 369
e 325 377
e 326 82
e 326 280
e 326 339
e 327 94
e 327 180
e 327 182
e 328 192
e 328 224
e 328 289
e 329 116
e 329 238
e 329 327
e 330 118
e 330 180
e 330 368
e 331 62
e 331 152
e 331 184
e 332 272
e 332 287
e 332 356
e 333 125
e 333 188
e 333 256
e 334 143
e 334 185
e 334 257
e 335 98
e 335 125
e 335 274
e 336 183
e 336 263
e 336 330
e 337 37
e 337 229
e 337 370
e 338 294
e 338 326
e 338 331
e 339 52
e 339 120
e 339 380
e 340 48
e 340 52
e 340 379
e 341 49
e 341 170
e 341 305
e 342 31
e 342 105
e 342 222
e 343 157
e 343 231
e 343 301
e 344 88
e 344 105
e 344 113
e 345 13
e 345 222
e 345 272
e 346 76
e 346 136
e 346 282
e 347 21
e 347 117
e 347 203
e 348 183
e 348 187
e 348 372
e 349 97
e 349 176
e 349 345
e 350 90
e 350 315
e 350 372
e 351 34
e 351 70
e 351 184
e 352 59
e 352 168
e 352 218
e 353 117
e 353 168
e 353 359
e 354 190
e 354 202
e 354 332
e 355 250
e 355 258
e 355 350
e 356 18
e 356 115
e 356 306
e 357 183
e 357 234
e 357 311
e 358 1
e 358 248
e 358 339
e 359 127
e 359 262
e 359 336
e 360 38
e 360 60
e 360 323
e 361 123
e 361 170
e 361 333
e 362 124
e 362 176
e 362 181
e 363 259
e 363 372
e 363 379
e 364 75
e 364 82
e 364 337
e 365 146
e 365 159
e 365 354
e 366 80
e 366 138
e 366 307
e 367 67
e 367 284
e 367 328
e 368 77
e 368 262
e 368 331
e 369 57
e 369 279
e 369 326
e 370 6
e 370 163
e 370 203
e 371 58
e 371 240
e 371 369
e 372 42
e 372 50
e 372 220
e 373 88
e 373 271
e 373 299
e 374 11
e 374 92
e 374 137
e 375 100
e 375 126
e 375 135
e 376 190
e 376 196
e 376 349
e 377 83
e 377 134
e 377 295
e 378 116
e 378 149
e 378 287
e 379 53
e 379 214
e 379 315
e 380 198
e 380 335
e 380 343
